$instance size is  200
letting capacity be  57469
letting items be new type enum { 
a1,a2,a3,a4,a5,a6,a7,a8,a9,a10,a11,a12,a13,a14,a15,a16,a17,a18,a19,a20,a21,a22,a23,a24,a25,a26,a27,a28,a29,a30,a31,a32,a33,a34,a35,a36,a37,a38,a39,a40,a41,a42,a43,a44,a45,a46,a47,a48,a49,a50,a51,a52,a53,a54,a55,a56,a57,a58,a59,a60,a61,a62,a63,a64,a65,a66,a67,a68,a69,a70,a71,a72,a73,a74,a75,a76,a77,a78,a79,a80,a81,a82,a83,a84,a85,a86,a87,a88,a89,a90,a91,a92,a93,a94,a95,a96,a97,a98,a99,a100,a101,a102,a103,a104,a105,a106,a107,a108,a109,a110,a111,a112,a113,a114,a115,a116,a117,a118,a119,a120,a121,a122,a123,a124,a125,a126,a127,a128,a129,a130,a131,a132,a133,a134,a135,a136,a137,a138,a139,a140,a141,a142,a143,a144,a145,a146,a147,a148,a149,a150,a151,a152,a153,a154,a155,a156,a157,a158,a159,a160,a161,a162,a163,a164,a165,a166,a167,a168,a169,a170,a171,a172,a173,a174,a175,a176,a177,a178,a179,a180,a181,a182,a183,a184,a185,a186,a187,a188,a189,a190,a191,a192,a193,a194,a195,a196,a197,a198,a199,a200
}
letting weight be function (
a1 --> 590,a2 --> 118,a3 --> 944,a4 --> 826,a5 --> 192,a6 --> 768,a7 --> 96,a8 --> 960,a9 --> 192,a10 --> 118,a11 --> 1180,a12 --> 864,a13 --> 576,a14 --> 576,a15 --> 192,a16 --> 864,a17 --> 354,a18 --> 944,a19 --> 384,a20 --> 384,a21 --> 708,a22 --> 96,a23 --> 960,a24 --> 384,a25 --> 1062,a26 --> 826,a27 --> 944,a28 --> 472,a29 --> 288,a30 --> 480,a31 --> 590,a32 --> 480,a33 --> 960,a34 --> 768,a35 --> 590,a36 --> 590,a37 --> 384,a38 --> 1062,a39 --> 236,a40 --> 118,a41 --> 944,a42 --> 118,a43 --> 354,a44 --> 672,a45 --> 472,a46 --> 472,a47 --> 826,a48 --> 192,a49 --> 472,a50 --> 118,a51 --> 768,a52 --> 354,a53 --> 472,a54 --> 472,a55 --> 236,a56 --> 960,a57 --> 590,a58 --> 960,a59 --> 768,a60 --> 826,a61 --> 576,a62 --> 768,a63 --> 384,a64 --> 864,a65 --> 708,a66 --> 192,a67 --> 354,a68 --> 576,a69 --> 576,a70 --> 960,a71 --> 768,a72 --> 826,a73 --> 864,a74 --> 1062,a75 --> 384,a76 --> 354,a77 --> 864,a78 --> 864,a79 --> 576,a80 --> 236,a81 --> 1062,a82 --> 672,a83 --> 576,a84 --> 960,a85 --> 192,a86 --> 96,a87 --> 96,a88 --> 1062,a89 --> 672,a90 --> 944,a91 --> 96,a92 --> 960,a93 --> 192,a94 --> 96,a95 --> 576,a96 --> 826,a97 --> 590,a98 --> 480,a99 --> 118,a100 --> 864,a101 --> 590,a102 --> 1180,a103 --> 118,a104 --> 236,a105 --> 826,a106 --> 480,a107 --> 864,a108 --> 472,a109 --> 864,a110 --> 384,a111 --> 118,a112 --> 1180,a113 --> 288,a114 --> 1180,a115 --> 944,a116 --> 864,a117 --> 1180,a118 --> 590,a119 --> 708,a120 --> 480,a121 --> 944,a122 --> 384,a123 --> 96,a124 --> 384,a125 --> 708,a126 --> 96,a127 --> 672,a128 --> 708,a129 --> 384,a130 --> 472,a131 --> 826,a132 --> 288,a133 --> 192,a134 --> 826,a135 --> 192,a136 --> 354,a137 --> 826,a138 --> 472,a139 --> 384,a140 --> 192,a141 --> 672,a142 --> 96,a143 --> 576,a144 --> 192,a145 --> 96,a146 --> 576,a147 --> 960,a148 --> 354,a149 --> 826,a150 --> 1180,a151 --> 576,a152 --> 864,a153 --> 288,a154 --> 960,a155 --> 1180,a156 --> 118,a157 --> 480,a158 --> 96,a159 --> 192,a160 --> 480,a161 --> 96,a162 --> 354,a163 --> 576,a164 --> 1180,a165 --> 1062,a166 --> 1180,a167 --> 960,a168 --> 118,a169 --> 672,a170 --> 288,a171 --> 944,a172 --> 480,a173 --> 288,a174 --> 354,a175 --> 768,a176 --> 480,a177 --> 354,a178 --> 192,a179 --> 288,a180 --> 1180,a181 --> 826,a182 --> 288,a183 --> 1180,a184 --> 826,a185 --> 864,a186 --> 960,a187 --> 944,a188 --> 288,a189 --> 118,a190 --> 826,a191 --> 960,a192 --> 672,a193 --> 944,a194 --> 384,a195 --> 944,a196 --> 118,a197 --> 118,a198 --> 192,a199 --> 354,a200 --> 708
)
letting gain be function (
a1 --> 690,a2 --> 138,a3 --> 1104,a4 --> 966,a5 --> 232,a6 --> 928,a7 --> 116,a8 --> 1160,a9 --> 232,a10 --> 138,a11 --> 1380,a12 --> 1044,a13 --> 696,a14 --> 696,a15 --> 232,a16 --> 1044,a17 --> 414,a18 --> 1104,a19 --> 464,a20 --> 464,a21 --> 828,a22 --> 116,a23 --> 1160,a24 --> 464,a25 --> 1242,a26 --> 966,a27 --> 1104,a28 --> 552,a29 --> 348,a30 --> 580,a31 --> 690,a32 --> 580,a33 --> 1160,a34 --> 928,a35 --> 690,a36 --> 690,a37 --> 464,a38 --> 1242,a39 --> 276,a40 --> 138,a41 --> 1104,a42 --> 138,a43 --> 414,a44 --> 812,a45 --> 552,a46 --> 552,a47 --> 966,a48 --> 232,a49 --> 552,a50 --> 138,a51 --> 928,a52 --> 414,a53 --> 552,a54 --> 552,a55 --> 276,a56 --> 1160,a57 --> 690,a58 --> 1160,a59 --> 928,a60 --> 966,a61 --> 696,a62 --> 928,a63 --> 464,a64 --> 1044,a65 --> 828,a66 --> 232,a67 --> 414,a68 --> 696,a69 --> 696,a70 --> 1160,a71 --> 928,a72 --> 966,a73 --> 1044,a74 --> 1242,a75 --> 464,a76 --> 414,a77 --> 1044,a78 --> 1044,a79 --> 696,a80 --> 276,a81 --> 1242,a82 --> 812,a83 --> 696,a84 --> 1160,a85 --> 232,a86 --> 116,a87 --> 116,a88 --> 1242,a89 --> 812,a90 --> 1104,a91 --> 116,a92 --> 1160,a93 --> 232,a94 --> 116,a95 --> 696,a96 --> 966,a97 --> 690,a98 --> 580,a99 --> 138,a100 --> 1044,a101 --> 690,a102 --> 1380,a103 --> 138,a104 --> 276,a105 --> 966,a106 --> 580,a107 --> 1044,a108 --> 552,a109 --> 1044,a110 --> 464,a111 --> 138,a112 --> 1380,a113 --> 348,a114 --> 1380,a115 --> 1104,a116 --> 1044,a117 --> 1380,a118 --> 690,a119 --> 828,a120 --> 580,a121 --> 1104,a122 --> 464,a123 --> 116,a124 --> 464,a125 --> 828,a126 --> 116,a127 --> 812,a128 --> 828,a129 --> 464,a130 --> 552,a131 --> 966,a132 --> 348,a133 --> 232,a134 --> 966,a135 --> 232,a136 --> 414,a137 --> 966,a138 --> 552,a139 --> 464,a140 --> 232,a141 --> 812,a142 --> 116,a143 --> 696,a144 --> 232,a145 --> 116,a146 --> 696,a147 --> 1160,a148 --> 414,a149 --> 966,a150 --> 1380,a151 --> 696,a152 --> 1044,a153 --> 348,a154 --> 1160,a155 --> 1380,a156 --> 138,a157 --> 580,a158 --> 116,a159 --> 232,a160 --> 580,a161 --> 116,a162 --> 414,a163 --> 696,a164 --> 1380,a165 --> 1242,a166 --> 1380,a167 --> 1160,a168 --> 138,a169 --> 812,a170 --> 348,a171 --> 1104,a172 --> 580,a173 --> 348,a174 --> 414,a175 --> 928,a176 --> 580,a177 --> 414,a178 --> 232,a179 --> 348,a180 --> 1380,a181 --> 966,a182 --> 348,a183 --> 1380,a184 --> 966,a185 --> 1044,a186 --> 1160,a187 --> 1104,a188 --> 348,a189 --> 138,a190 --> 966,a191 --> 1160,a192 --> 812,a193 --> 1104,a194 --> 464,a195 --> 1104,a196 --> 138,a197 --> 138,a198 --> 232,a199 --> 414,a200 --> 828
)
